43 43
4 1
4 9
3 8
1 9
10 10
5 9
4 5
8 7
7 8
9 10
6 5
2 5
10 2
4 2
10 6
3 9
8 8
1 6
2 10
7 5
10 8
2 3
6 8
2 10
2 5
2 8
9 7
1 10
8 1
7 4
9 1
3 2
9 1
7 7
6 5
1 8
9 2
2 7
5 6
1 4
1 10
4 8
10 1
14 13 72
13 15 89
10 12 63
11 15 92
17 17 54
10 14 77
11 20 95
19 20 69
20 14 76
19 16 60
13 17 99
11 14 60
11 14 52
11 17 94
11 13 57
19 17 60
10 14 55
12 19 88
13 19 67
14 17 75
14 12 51
15 16 82
10 15 63
17 14 82
17 17 69
13 20 96
18 15 54
14 20 70
20 15 61
18 11 61
18 16 84
14 10 79
20 11 98
18 10 90
16 12 71
16 19 68
20 12 94
11 12 57
18 18 87
13 16 93
20 16 95
11 16 96
11 12 92
